GLPSOL--GLPK LP/MIP Solver 5.0
Parameter(s) specified in the command line:
 --lp ../modeles/15_254.lp --log 15_254.log
Reading problem data from '../modeles/15_254.lp'...
3871 rows, 7650 columns, 26715 non-zeros
3810 integer variables, all of which are binary
11542 lines were read
GLPK Integer Optimizer 5.0
3871 rows, 7650 columns, 26715 non-zeros
3810 integer variables, all of which are binary
Preprocessing...
3750 constraint coefficient(s) were reduced
3871 rows, 7635 columns, 26700 non-zeros
3810 integer variables, all of which are binary
Scaling...
 A: min|aij| =  2.480e-04  max|aij| =  4.000e+00  ratio =  1.613e+04
GM: min|aij| =  8.874e-02  max|aij| =  1.127e+01  ratio =  1.270e+02
EQ: min|aij| =  7.874e-03  max|aij| =  1.000e+00  ratio =  1.270e+02
2N: min|aij| =  7.812e-03  max|aij| =  1.750e+00  ratio =  2.240e+02
Constructing initial basis...
Size of triangular part is 3871
Solving LP relaxation...
GLPK Simplex Optimizer 5.0
3871 rows, 7635 columns, 26700 non-zeros
      0: obj =   3.000000000e+01 inf =   7.450e+01 (31)
Perturbing LP to avoid stalling [199]...
    254: obj =   1.469475708e-01 inf =   0.000e+00 (0)
Removing LP perturbation [850]...
*   850: obj =  -3.871271773e+00 inf =   2.438e-15 (0)
OPTIMAL LP SOLUTION FOUND
Integer optimization begins...
Long-step dual simplex will be used
+   850: mip =     not found yet >=              -inf        (1; 0)
+  1275: >>>>>  -3.871271773e+00 >=  -3.871271773e+00 < 0.1% (419; 0)
+  1275: mip =  -3.871271773e+00 >=     tree is empty   0.0% (0; 837)
INTEGER OPTIMAL SOLUTION FOUND
Time used:   3.7 secs
Memory used: 11.2 Mb (11763453 bytes)
